100 8
471 281
719 295
545 312
230 664
651 206
520 328
541 345
307 717
857 113
703 50
302 758
604 389
639 596
645 298
629 351
822 706
348 137
890 688
275 840
846 923
651 310
135 862
437 346
964 151
87 837
258 332
956 180
211 363
739 265
501 573
380 117
699 141
308 827
742 545
306 840
540 413
290 778
396 751
623 325
757 656
377 159
560 328
378 274
638 613
479 591
303 786
783 356
113 778
770 145
883 34
729 342
223 758
162 871
392 339
304 703
693 80
754 272
423 592
711 425
267 510
50 690
865 58
211 233
565 546
175 813
645 609
230 695
94 844
465 331
286 67
200 73
988 54
439 374
323 885
635 256
834 429
811 314
643 496
647 224
210 133
587 660
979 215
661 454
747 276
682 337
517 272
732 95
635 340
682 168
747 562
719 271
759 188
562 389
928 119
110 719
612 518
697 872
392 451
400 432
817 392
